Academic license - for non-commercial use only
Changed value of parameter TimeLimit to 600.0
   Prev: 1e+100  Min: 0.0  Max: 1e+100  Default: 1e+100
Optimize a model with 1200 rows, 360600 columns and 720600 nonzeros
Variable types: 0 continuous, 360600 integer (360600 binary)
Coefficient statistics:
  Matrix range     [1e+00, 2e+04]
  Objective range  [1e+00, 1e+00]
  Bounds range     [1e+00, 1e+00]
  RHS range        [1e+00, 1e+00]
Found heuristic solution: objective 406.0000000
Presolve time: 1.02s
Presolved: 1200 rows, 360600 columns, 720600 nonzeros
Variable types: 0 continuous, 360600 integer (360600 binary)

Root relaxation: objective 1.980000e+02, 3139 iterations, 1.12 seconds
Total elapsed time = 7.92s
Total elapsed time = 13.56s

    Nodes    |    Current Node    |     Objective Bounds      |     Work
 Expl Unexpl |  Obj  Depth IntInf | Incumbent    BestBd   Gap | It/Node Time

     0     0  198.00000    0  288  406.00000  198.00000  51.2%     -   17s
H    0     0                     247.0000000  198.00000  19.8%     -   18s
H    0     0                     224.0000000  198.00000  11.6%     -   18s
H    0     0                     208.0000000  198.00000  4.81%     -   29s
H    0     0                     207.0000000  198.00000  4.35%     -   30s
     0     0  198.00000    0  393  207.00000  198.00000  4.35%     -   33s
H    0     0                     205.0000000  198.00000  3.41%     -   50s
     0     0  198.00000    0  413  205.00000  198.00000  3.41%     -   51s
     0     0  198.00000    0  333  205.00000  198.00000  3.41%     -  132s
     0     0  198.00000    0  308  205.00000  198.00000  3.41%     -  141s
H    0     0                     204.0000000  198.00000  2.94%     -  143s
     0     2  198.00000    0  306  204.00000  198.00000  2.94%     -  209s
     1     4  198.00000    1  317  204.00000  198.00000  2.94%  6857  210s
     7    14  198.00000    3  424  204.00000  198.00000  2.94%  1382  221s
    13    20  198.00000    4  406  204.00000  198.00000  2.94%  1120  234s
    25    29  198.00000    5  409  204.00000  198.00000  2.94%   814  235s
    64    66  198.00000   11  400  204.00000  198.00000  2.94%  1021  244s
   114   116  198.00000   17  401  204.00000  198.00000  2.94%  1302  255s
   230   228  198.00000   27  348  204.00000  198.00000  2.94%  1571  268s
   383   387  198.00000   45  366  204.00000  198.00000  2.94%  1570  320s
H  387   389                     203.0000000  198.00000  2.46%  1554  320s
H  388   390                     202.0000000  198.00000  1.98%  1552  320s
   389   392  198.00000   45  355  202.00000  198.00000  1.98%  1552  334s
   558   555  198.00000   64  354  202.00000  198.00000  1.98%  1546  348s
   720   721  198.00000   78  346  202.00000  198.00000  1.98%  1526  360s
   891   892  198.00000   96  345  202.00000  198.00000  1.98%  1458  374s
  1058  1064  198.00000  119  347  202.00000  198.00000  1.98%  1497  388s
  1231  1226  198.00000  137  351  202.00000  198.00000  1.98%  1470  402s
  1408  1411  198.00000  156  331  202.00000  198.00000  1.98%  1480  417s
  1593  1589  198.00000  175  322  202.00000  198.00000  1.98%  1487  432s
  1795  1800  198.00000  204  337  202.00000  198.00000  1.98%  1452  447s
  2000  1999  198.00000  225  372  202.00000  198.00000  1.98%  1440  464s
  2220  2222  198.00000  254  335  202.00000  198.00000  1.98%  1390  479s
  2440  2443  198.00000  278  338  202.00000  198.00000  1.98%  1349  496s
  2678  2678  198.00000  306  355  202.00000  198.00000  1.98%  1330  514s
  2925  2929  198.00000  334  342  202.00000  198.00000  1.98%  1294  589s
  3129  3121  198.00000  360  354  202.00000  198.00000  1.98%  1269  600s

Cutting planes:
  Cover: 296
  Clique: 58
  MIR: 103
  StrongCG: 79

Explored 3271 nodes (4173977 simplex iterations) in 600.08 seconds
Thread count was 12 (of 12 available processors)

Solution count 9: 202 203 204 ... 406

Time limit reached
Best objective 2.020000000000e+02, best bound 1.980000000000e+02, gap 1.9802%
y[0]
y[1]
y[2]
y[3]
y[4]
y[8]
y[11]
y[12]
y[15]
y[18]
y[20]
y[22]
y[32]
y[33]
y[34]
y[39]
y[41]
y[42]
y[43]
y[45]
y[48]
y[54]
y[58]
y[62]
y[63]
y[64]
y[65]
y[67]
y[72]
y[73]
y[74]
y[76]
y[80]
y[85]
y[89]
y[90]
y[91]
y[93]
y[94]
y[96]
y[97]
y[102]
y[114]
y[126]
y[131]
y[132]
y[134]
y[135]
y[142]
y[147]
y[149]
y[151]
y[155]
y[157]
y[158]
y[160]
y[165]
y[172]
y[183]
y[185]
y[186]
y[189]
y[190]
y[193]
y[195]
y[196]
y[198]
y[201]
y[205]
y[206]
y[208]
y[210]
y[211]
y[216]
y[223]
y[224]
y[229]
y[230]
y[234]
y[236]
y[241]
y[250]
y[251]
y[253]
y[255]
y[256]
y[257]
y[261]
y[262]
y[263]
y[265]
y[269]
y[272]
y[274]
y[275]
y[277]
y[280]
y[282]
y[283]
y[288]
y[290]
y[293]
y[296]
y[297]
y[298]
y[302]
y[303]
y[306]
y[309]
y[313]
y[316]
y[320]
y[323]
y[326]
y[331]
y[333]
y[336]
y[338]
y[346]
y[352]
y[354]
y[356]
y[357]
y[359]
y[361]
y[367]
y[371]
y[372]
y[373]
y[378]
y[386]
y[390]
y[391]
y[396]
y[402]
y[405]
y[406]
y[407]
y[409]
y[412]
y[416]
y[417]
y[422]
y[424]
y[431]
y[440]
y[441]
y[445]
y[446]
y[448]
y[458]
y[462]
y[471]
y[474]
y[477]
y[478]
y[479]
y[481]
y[483]
y[485]
y[487]
y[495]
y[497]
y[499]
y[500]
y[509]
y[510]
y[512]
y[514]
y[515]
y[516]
y[517]
y[522]
y[523]
y[525]
y[526]
y[530]
y[535]
y[536]
y[540]
y[543]
y[544]
y[545]
y[547]
y[549]
y[551]
y[552]
y[555]
y[562]
y[564]
y[567]
y[580]
y[581]
y[584]
y[585]
y[587]
y[589]
y[590]
y[594]
y[595]
y[596]
y[598]
x[0][126]
x[0][266]
x[0][553]
x[1][214]
x[1][219]
x[1][324]
x[1][454]
x[1][505]
x[1][562]
x[2][101]
x[2][432]
x[2][452]
x[2][492]
x[3][42]
x[3][375]
x[3][529]
x[4][112]
x[4][280]
x[4][512]
x[8][24]
x[8][463]
x[8][511]
x[8][571]
x[11][93]
x[11][303]
x[12][137]
x[12][246]
x[15][123]
x[15][259]
x[18][129]
x[18][257]
x[18][556]
x[20][175]
x[20][207]
x[20][588]
x[22][133]
x[22][330]
x[22][384]
x[22][517]
x[32][145]
x[32][231]
x[33][55]
x[33][392]
x[33][479]
x[34][152]
x[34][223]
x[39][25]
x[39][469]
x[39][507]
x[39][550]
x[41][169]
x[41][222]
x[42][104]
x[42][301]
x[42][446]
x[43][90]
x[43][344]
x[43][419]
x[45][108]
x[45][331]
x[45][386]
x[48][128]
x[48][268]
x[48][456]
x[54][60]
x[54][346]
x[58][63]
x[58][368]
x[58][434]
x[62][143]
x[62][258]
x[62][508]
x[62][534]
x[63][82]
x[63][329]
x[64][134]
x[64][241]
x[65][11]
x[65][404]
x[67][89]
x[67][332]
x[67][471]
x[72][244]
x[72][264]
x[72][288]
x[72][325]
x[73][58]
x[73][327]
x[74][75]
x[74][333]
x[76][156]
x[76][249]
x[76][416]
x[80][16]
x[80][400]
x[80][558]
x[85][54]
x[85][322]
x[89][166]
x[89][248]
x[89][551]
x[89][564]
x[90][79]
x[90][300]
x[90][593]
x[91][191]
x[91][242]
x[93][119]
x[93][256]
x[93][594]
x[94][49]
x[94][357]
x[96][111]
x[96][295]
x[96][519]
x[96][520]
x[97][122]
x[97][317]
x[97][378]
x[102][61]
x[102][321]
x[114][9]
x[114][470]
x[114][496]
x[114][578]
x[126][164]
x[126][217]
x[131][138]
x[131][286]
x[131][437]
x[131][572]
x[132][83]
x[132][298]
x[134][27]
x[134][353]
x[135][103]
x[135][292]
x[142][28]
x[142][349]
x[147][193]
x[147][206]
x[147][497]
x[147][531]
x[147][555]
x[149][26]
x[149][436]
x[149][504]
x[151][116]
x[151][294]
x[151][445]
x[155][174]
x[155][213]
x[155][506]
x[155][585]
x[157][68]
x[157][312]
x[158][37]
x[158][343]
x[160][34]
x[160][459]
x[160][523]
x[160][541]
x[160][573]
x[165][178]
x[165][216]
x[165][440]
x[172][7]
x[172][412]
x[172][584]
x[183][10]
x[183][422]
x[183][483]
x[185][86]
x[185][318]
x[185][487]
x[186][155]
x[186][253]
x[186][559]
x[186][598]
x[189][130]
x[189][289]
x[189][405]
x[190][6]
x[190][373]
x[193][41]
x[193][335]
x[195][43]
x[195][351]
x[196][70]
x[196][315]
x[198][179]
x[198][204]
x[198][565]
x[201][38]
x[201][337]
x[205][40]
x[205][340]
x[206][64]
x[206][367]
x[208][78]
x[208][359]
x[210][162]
x[210][243]
x[210][481]
x[210][546]
x[211][48]
x[211][364]
x[211][552]
x[216][183]
x[216][208]
x[216][560]
x[223][98]
x[223][293]
x[224][151]
x[224][221]
x[229][121]
x[229][283]
x[229][451]
x[230][147]
x[230][228]
x[234][35]
x[234][411]
x[234][442]
x[234][599]
x[236][8]
x[236][376]
x[241][45]
x[241][399]
x[241][444]
x[250][141]
x[250][277]
x[250][461]
x[250][499]
x[251][195]
x[251][338]
x[251][350]
x[251][402]
x[251][407]
x[251][431]
x[253][154]
x[253][245]
x[253][509]
x[253][514]
x[255][84]
x[255][304]
x[255][579]
x[256][117]
x[256][255]
x[257][21]
x[257][360]
x[261][15]
x[261][426]
x[261][547]
x[261][557]
x[262][99]
x[262][291]
x[263][171]
x[263][229]
x[265][69]
x[265][334]
x[265][570]
x[265][574]
x[269][165]
x[269][218]
x[272][190]
x[272][209]
x[272][421]
x[272][532]
x[274][173]
x[274][251]
x[274][379]
x[274][474]
x[275][146]
x[275][235]
x[277][73]
x[277][316]
x[280][96]
x[280][314]
x[280][441]
x[282][109]
x[282][299]
x[283][53]
x[283][339]
x[288][136]
x[288][281]
x[288][394]
x[290][94]
x[290][296]
x[290][545]
x[293][57]
x[293][347]
x[293][563]
x[296][31]
x[296][443]
x[296][485]
x[297][5]
x[297][538]
x[297][568]
x[297][569]
x[298][46]
x[298][397]
x[298][526]
x[298][540]
x[302][159]
x[302][265]
x[302][363]
x[303][47]
x[303][430]
x[303][455]
x[303][494]
x[306][97]
x[306][287]
x[309][150]
x[309][224]
x[313][18]
x[313][500]
x[313][521]
x[316][115]
x[316][271]
x[316][537]
x[320][52]
x[320][336]
x[323][161]
x[323][226]
x[323][596]
x[326][56]
x[326][377]
x[326][488]
x[331][81]
x[331][365]
x[331][409]
x[333][95]
x[333][313]
x[333][530]
x[336][149]
x[336][238]
x[336][476]
x[338][80]
x[338][358]
x[338][513]
x[346][196]
x[346][210]
x[346][396]
x[346][567]
x[352][105]
x[352][284]
x[352][590]
x[354][62]
x[354][401]
x[354][414]
x[356][172]
x[356][260]
x[356][326]
x[357][0]
x[357][380]
x[359][74]
x[359][385]
x[359][475]
x[359][561]
x[359][566]
x[359][592]
x[361][125]
x[361][275]
x[361][495]
x[367][66]
x[367][320]
x[371][77]
x[371][309]
x[372][23]
x[372][369]
x[372][587]
x[373][192]
x[373][198]
x[373][417]
x[378][19]
x[378][383]
x[386][181]
x[386][203]
x[390][185]
x[390][263]
x[390][413]
x[390][450]
x[390][473]
x[390][491]
x[391][167]
x[391][236]
x[391][472]
x[391][580]
x[396][132]
x[396][247]
x[402][199]
x[402][237]
x[402][261]
x[402][583]
x[405][72]
x[405][328]
x[405][524]
x[405][595]
x[406][184]
x[406][232]
x[406][393]
x[406][542]
x[406][597]
x[407][177]
x[407][212]
x[407][484]
x[407][549]
x[409][107]
x[409][270]
x[412][30]
x[412][435]
x[412][447]
x[416][33]
x[416][425]
x[416][464]
x[417][127]
x[417][269]
x[417][467]
x[422][76]
x[422][345]
x[422][515]
x[424][22]
x[424][403]
x[424][535]
x[431][160]
x[431][230]
x[431][489]
x[440][39]
x[440][398]
x[440][516]
x[441][13]
x[441][387]
x[441][582]
x[445][87]
x[445][323]
x[445][490]
x[446][118]
x[446][302]
x[446][518]
x[446][522]
x[448][186]
x[448][215]
x[448][374]
x[448][581]
x[458][14]
x[458][382]
x[462][139]
x[462][274]
x[462][420]
x[471][200]
x[471][220]
x[471][342]
x[471][458]
x[474][106]
x[474][297]
x[474][482]
x[477][4]
x[477][418]
x[477][533]
x[478][142]
x[478][252]
x[478][503]
x[479][120]
x[479][361]
x[479][372]
x[481][113]
x[481][262]
x[483][29]
x[483][388]
x[483][539]
x[485][148]
x[485][225]
x[487][131]
x[487][273]
x[487][466]
x[495][170]
x[495][227]
x[495][439]
x[497][88]
x[497][290]
x[499][59]
x[499][389]
x[499][453]
x[499][544]
x[500][20]
x[500][493]
x[500][501]
x[500][576]
x[509][65]
x[509][408]
x[509][448]
x[509][554]
x[510][140]
x[510][352]
x[512][44]
x[512][370]
x[514][3]
x[514][468]
x[514][502]
x[514][536]
x[515][12]
x[515][438]
x[515][486]
x[516][50]
x[516][341]
x[516][575]
x[517][180]
x[517][205]
x[522][110]
x[522][311]
x[522][428]
x[523][114]
x[523][307]
x[523][449]
x[523][528]
x[525][17]
x[525][371]
x[526][91]
x[526][305]
x[530][51]
x[530][424]
x[530][457]
x[530][480]
x[535][188]
x[535][240]
x[535][356]
x[535][415]
x[536][100]
x[536][278]
x[540][102]
x[540][319]
x[540][427]
x[543][2]
x[543][498]
x[543][525]
x[543][543]
x[544][36]
x[544][362]
x[545][1]
x[545][391]
x[547][135]
x[547][308]
x[547][429]
x[547][465]
x[549][85]
x[549][306]
x[549][548]
x[551][168]
x[551][234]
x[551][478]
x[551][510]
x[552][182]
x[552][197]
x[555][92]
x[555][355]
x[555][390]
x[562][32]
x[562][395]
x[562][477]
x[564][189]
x[564][254]
x[564][282]
x[567][71]
x[567][381]
x[567][410]
x[580][194]
x[580][202]
x[580][406]
x[581][67]
x[581][310]
x[584][157]
x[584][279]
x[584][354]
x[584][577]
x[585][233]
x[585][239]
x[587][153]
x[587][276]
x[587][348]
x[589][158]
x[589][250]
x[589][462]
x[589][586]
x[589][589]
x[589][591]
x[590][163]
x[590][272]
x[590][366]
x[594][176]
x[594][211]
x[594][460]
x[595][187]
x[595][201]
x[595][433]
x[596][124]
x[596][267]
x[596][527]
x[598][144]
x[598][285]
x[598][423]
Obj: 202.0
